10222.84,59.5,73.8
9651.01,63.02,78.18
9211.49,66.03,81.91
10250.82,59.33,73.6
10498.37,57.93,71.87
10482.18,58.02,71.98
9978.15,60.95,75.61
11644.04,52.23,64.8
10515.24,57.84,71.75
10806.3,56.28,69.82
10001.89,60.81,75.43
9663.13,62.94,78.08
10649.13,57.11,70.85
10372.75,58.64,72.74
10689.49,56.9,70.58
9488.23,64.1,79.52
10280.29,59.16,73.39
10475.18,58.06,72.03
10847.75,56.07,69.55
9920.38,61.31,76.05
